<instance format="XCSP3" type="CSP">
  <variables>
    <var id="x0"> 3 6 10 12 15 </var>
    <var id="x1"> 0 10 17 </var>
    <var id="x2"> 0 3 6 15 17 </var>
    <var id="x3"> 0 3 11 15 17 </var>
    <var id="x4"> 0 6 10..12 15 17 </var>
    <var id="x5"> 0 10 11 15 17 </var>
    <var id="x6"> 0 12 17 </var>
    <var id="x7"> 3 10 11 17 </var>
    <var id="x8"> 3 7 8 10 13 </var>
    <var id="x9"> 0 3 13 17 </var>
    <var id="x10"> 3 10 11 </var>
    <var id="x11"> 0 3 7 8 11 17 </var>
    <var as="x8" id="x12"/>
    <var id="x13"> 0 7 10 11 17 </var>
    <var id="x14"> 3 7 11 17 </var>
    <var id="x15"> 0 11 13 </var>
    <var id="x16"> 0 2 9 13 17 </var>
    <var id="x17"> 0 7 17 </var>
    <var id="x18"> 2 7 9 10 13 </var>
    <var id="x19"> 0 4 7 10 17 </var>
    <var id="x20"> 2 7 17 </var>
    <var id="x21"> 0 4 13 </var>
    <var id="x22"> 2 9 10 13 </var>
    <var id="x23"> 0 4 7 10 13 17 </var>
    <var id="x24"> 7 10 17 </var>
    <var id="x25"> 3 10 11 15 </var>
    <var id="x26"> 8 10 15 </var>
    <var id="x27"> 11 </var>
    <var id="x28"> 8 10 11 15 </var>
    <var id="x29"> 3 8 10 11 17 </var>
    <var id="x30"> 7 10 17 </var>
    <var id="x31"> 6 10 12 15 </var>
    <var id="x32"> 9 15 </var>
    <var id="x33"> 2 6 9 15 </var>
    <var id="x34"> 2 4 9 10 15 </var>
    <var id="x35"> 4 5 10 15 </var>
    <var id="x36"> 2 6 15 </var>
    <var id="x37"> 2 5 12 15 </var>
    <var id="x38"> 9 10 </var>
    <var id="x39"> 0 7 8 13 15 </var>
    <var as="x8" id="x40"/>
    <var id="x41"> 0 10 15 </var>
    <var id="x42"> 3 7 15 </var>
    <var id="x43"> 0 8 13 </var>
    <var id="x44"> 8 10 13 15 </var>
    <var id="x45"> 0 7 10 13 </var>
    <var id="x46"> 3 6 8 15 </var>
    <var id="x47"> 3 5 8 15 17 </var>
    <var id="x48"> 5 6 8 15 </var>
    <var id="x49"> 2 5 8 17 </var>
    <var id="x50"> 3 5 6 17 </var>
    <var id="x51"> 5 14 </var>
    <var id="x52"> 2 8 15 </var>
    <var id="x53"> 17 </var>
    <var id="x54"> 0 5 7 8 15 </var>
    <var id="x55"> 5 8 9 12 15 </var>
    <var id="x56"> 7 15 </var>
    <var id="x57"> 5 7 12 15 </var>
    <var id="x58"> 0 5 12 </var>
    <var id="x59"> 0 5 16 </var>
    <var id="x60"> 8 9 16 </var>
    <var id="x61"> 0 7 12 </var>
    <var id="x62"> 3 6 10 13 </var>
    <var id="x63"> 0 9 13 17 </var>
    <var id="x64"> 0 9 10 17 </var>
    <var id="x65"> 3 9 10 </var>
    <var id="x66"> 6 9 10 13 </var>
    <var id="x67"> 3 9 10 13 14 </var>
    <var id="x68"> 0 6 10 14 17 </var>
    <var id="x69"> 0 9 13 17 </var>
    <var id="x70"> 3 6 8 13 15 </var>
    <var id="x71"> 3 15 </var>
    <var id="x72"> 0 3 8 15 17 </var>
    <var id="x73"> 0 15 17 </var>
    <var id="x74"> 3 6 14 15 17 </var>
    <var id="x75"> 3 14 15 17 </var>
    <var id="x76"> 0 13 14 </var>
    <var id="x77"> 8 13 15 </var>
    <var id="x78"> 3 10 12 13 </var>
    <var id="x79"> 9 10 </var>
    <var id="x80"> 3 9..11 </var>
    <var id="x81"> 10..12 </var>
    <var id="x82"> 3 5 12 </var>
    <var id="x83"> 3 5 12 13 </var>
    <var id="x84"> 5 11 13 </var>
    <var id="x85"> 7 11 13 15 </var>
    <var id="x86"> 4 7 </var>
    <var id="x87"> 12 13 15 </var>
    <var id="x88"> 11 12 15 </var>
    <var id="x89"> 2 7 11 15 </var>
    <var id="x90"> 2 7 12 15 </var>
    <var id="x91"> 2 12 13 </var>
    <var id="x92"> 11 16 </var>
    <var id="x93"> 0 9 11 13 15 </var>
    <var id="x94"> 0 5 11 15 </var>
    <var id="x95"> 5 9 13 15 </var>
    <var id="x96"> 2 9 13 14 </var>
    <var id="x97"> 2 5 14 15 </var>
    <var id="x98"> 0 5 13 </var>
    <var id="x99"> 2 9 11 13 15 </var>
    <var id="x100"> 9 11 </var>
    <var id="x101"> 7 12 </var>
    <var id="x102"> 1 4 7 17 </var>
    <var id="x103"> 2 4 11 16 </var>
    <var id="x104"> 4 7 11 17 </var>
    <var id="x105"> 2 12 17 </var>
    <var id="x106"> 1 4 11 16 </var>
    <var id="x107"> 2 11 12 </var>
    <var id="x108"> 4 7 12 17 </var>
    <var id="x109"> 8 9 17 </var>
    <var id="x110"> 3 9 17 </var>
    <var id="x111"> 3 8..10 </var>
    <var id="x112"> 10 12 17 </var>
    <var id="x113"> 8 9 12 17 </var>
    <var id="x114"> 3 12 17 </var>
    <var id="x115"> 1 3 8..10 17 </var>
    <var id="x116"> 4 10 12 17 </var>
    <var id="x117"> 7 9 11 13 15 17 </var>
    <var id="x118"> 9 13 15 17 </var>
    <var id="x119"> 5 7 11 15 17 </var>
    <var id="x120"> 5 9 12 13 15 </var>
    <var id="x121"> 7 9 13 </var>
    <var id="x122"> 11 12 15 17 </var>
    <var as="x119" id="x123"/>
    <var id="x124"> 9 11..13 15 </var>
    <var id="x125"> 0 7 9 13 15 17 </var>
    <var id="x126"> 0 2 9 13 15 17 </var>
    <var id="x127"> 2 9 15 </var>
    <var id="x128"> 9 13 15 </var>
    <var id="x129"> 2 7 9 13 14 </var>
    <var id="x130"> 0 14 15 17 </var>
    <var id="x131"> 2 7 14 15 17 </var>
    <var id="x132"> 0 13 17 </var>
    <var id="x133"> 0 1 10 17 </var>
    <var id="x134"> 0 6 17 </var>
    <var id="x135"> 0 5 10 11 17 </var>
    <var id="x136"> 6 11 17 </var>
    <var id="x137"> 5 17 </var>
    <var id="x138"> 0 5 8 17 </var>
    <var id="x139"> 0 5 6 17 </var>
    <var id="x140"> 1 8 10 11 17 </var>
  </variables>
  <constraints>
    <group>
      <allDifferent> %... </allDifferent>
      <args> x0 x1 x2 x3 x4 x5 x6 x7 </args>
      <args> x8 x9 x10 x11 x12 x13 x14 x15 </args>
      <args> x16 x17 x18 x19 x20 x21 x22 x23 </args>
      <args> x24 x25 x26 x27 x28 x29 x30 </args>
      <args> x31 x32 x33 x34 x35 x36 x37 x38 </args>
      <args> x39 x40 x41 x42 x43 x44 x45 </args>
      <args> x46 x47 x48 x49 x50 x51 x52 x53 </args>
      <args> x54 x55 x56 x57 x58 x59 x60 x61 </args>
      <args> x62 x63 x64 x65 x66 x67 x68 x69 </args>
      <args> x70 x71 x72 x73 x74 x75 x76 x77 </args>
      <args> x78 x79 x80 x81 x82 x83 x84 </args>
      <args> x85 x86 x87 x88 x89 x90 x91 x92 </args>
      <args> x93 x94 x95 x96 x97 x98 x99 x100 </args>
      <args> x101 x102 x103 x104 x105 x106 x107 x108 </args>
      <args> x109 x110 x111 x112 x113 x114 x115 x116 </args>
      <args> x117 x118 x119 x120 x121 x122 x123 x124 </args>
      <args> x125 x126 x127 x128 x129 x130 x131 x132 </args>
      <args> x133 x134 x135 x136 x137 x138 x139 x140 </args>
      <args> x0 x8 x31 x46 x62 x70 x78 x101 </args>
      <args> x32 x39 x63 x85 x93 x109 x117 x125 </args>
      <args> x1 x24 x64 x79 x86 x102 x133 </args>
      <args> x2 x9 x16 x33 x110 x118 x126 x134 </args>
      <args> x10 x25 x34 x65 x71 x80 x103 x127 </args>
      <args> x3 x11 x17 x47 x54 x72 x94 x119 </args>
      <args> x26 x48 x55 x66 x87 x95 x120 x128 </args>
      <args> x12 x18 x40 x67 x96 x111 x121 x129 </args>
      <args> x4 x41 x68 x81 x88 x112 x122 x130 </args>
      <args> x5 x13 x19 x35 x73 x104 x123 x135 </args>
      <args> x14 x36 x42 x56 x74 x89 x131 x136 </args>
      <args> x20 x37 x57 x75 x82 x90 x97 x137 </args>
      <args> x6 x43 x49 x69 x91 x105 x113 x138 </args>
      <args> x50 x58 x83 x98 x114 x132 x139 </args>
      <args> x15 x21 x27 x51 x59 x76 x84 x106 </args>
      <args> x22 x28 x44 x52 x77 x99 x107 x124 </args>
      <args> x7 x29 x38 x60 x92 x100 x115 x140 </args>
      <args> x23 x30 x45 x53 x61 x108 x116 </args>
    </group>
  </constraints>
</instance>

